NAME : KROC99B.25602.tour
COMMENT : Cost = 0_25602
COMMENT : Found by LKH [Keld Helsgaun] Sun Sep 17 16:52:41 2017
TYPE : TOUR
DIMENSION : 99
TOUR_SECTION
1
53
27
67
55
47
31
65
79
77
35
23
90
94
93
76
70
21
88
73
3
69
98
10
91
19
92
49
18
29
61
9
81
7
26
32
24
46
37
16
51
63
44
66
48
11
83
52
86
95
96
80
45
33
99
74
57
36
14
4
60
59
41
30
68
2
54
6
75
22
8
34
72
82
62
50
85
5
43
56
71
38
39
28
87
97
58
89
25
17
42
20
64
78
13
15
84
40
12
-1
EOF
